c Generated map
c Size: 9 * 9, weights in range: 1 to 10, walls: True, with ratio 0.05
c dim 5 of 8
c
p sp 81 130
c graph contains 81 nodes and 130 arcs
c
a 1 10 3
a 10 1 3
a 1 2 4
a 2 1 4
a 2 11 10
a 11 2 10
a 2 3 7
a 3 2 7
a 3 12 10
a 12 3 10
a 3 4 8
a 4 3 8
a 4 13 5
a 13 4 5
a 6 15 4
a 15 6 4
a 6 7 2
a 7 6 2
a 7 16 4
a 16 7 4
a 7 8 3
a 8 7 3
a 8 17 3
a 17 8 3
a 8 9 10
a 9 8 10
a 9 18 8
a 18 9 8
a 10 19 6
a 19 10 6
a 10 11 3
a 11 10 3
a 11 20 2
a 20 11 2
a 11 12 4
a 12 11 4
a 12 21 1
a 21 12 1
a 12 13 7
a 13 12 7
a 13 22 4
a 22 13 4
a 13 14 5
a 14 13 5
a 14 23 4
a 23 14 4
a 14 15 10
a 15 14 10
a 15 24 6
a 24 15 6
a 15 16 5
a 16 15 5
a 16 25 7
a 25 16 7
a 16 17 8
a 17 16 8
a 17 26 2
a 26 17 2
a 17 18 4
a 18 17 4
a 18 27 7
a 27 18 7
a 19 28 2
a 28 19 2
a 19 20 7
a 20 19 7
a 20 29 2
a 29 20 2
a 20 21 10
a 21 20 10
a 21 30 8
a 30 21 8
a 21 22 3
a 22 21 3
a 22 31 6
a 31 22 6
a 22 23 2
a 23 22 2
a 23 32 8
a 32 23 8
a 23 24 8
a 24 23 8
a 24 33 4
a 33 24 4
a 24 25 4
a 25 24 4
a 25 26 7
a 26 25 7
a 26 35 10
a 35 26 10
a 26 27 8
a 27 26 8
a 27 36 3
a 36 27 3
a 28 37 5
a 37 28 5
a 28 29 9
a 29 28 9
a 29 38 7
a 38 29 7
a 29 30 6
a 30 29 6
a 30 39 10
a 39 30 10
a 30 31 2
a 31 30 2
a 31 40 5
a 40 31 5
a 31 32 3
a 32 31 3
a 32 41 10
a 41 32 10
a 32 33 8
a 33 32 8
a 33 42 7
a 42 33 7
a 35 44 7
a 44 35 7
a 35 36 8
a 36 35 8
a 36 45 1
a 45 36 1
a 37 46 6
a 46 37 6
a 37 38 5
a 38 37 5
a 38 47 5
a 47 38 5
a 38 39 7
a 39 38 7
a 39 48 4
a 48 39 4
a 39 40 9
a 40 39 9
a 40 49 1
a 49 40 1
a 40 41 3
a 41 40 3
a 41 50 1
a 50 41 1
a 41 42 3
a 42 41 3
a 42 51 7
a 51 42 7
a 42 43 5
a 43 42 5
a 43 52 2
a 52 43 2
a 43 44 9
a 44 43 9
a 44 53 8
a 53 44 8
a 44 45 10
a 45 44 10
a 45 54 10
a 54 45 10
a 46 55 10
a 55 46 10
a 46 47 2
a 47 46 2
a 47 56 3
a 56 47 3
a 47 48 6
a 48 47 6
a 48 57 9
a 57 48 9
a 48 49 10
a 49 48 10
a 49 58 4
a 58 49 4
a 49 50 5
a 50 49 5
a 50 59 8
a 59 50 8
a 50 51 2
a 51 50 2
a 51 60 5
a 60 51 5
a 51 52 6
a 52 51 6
a 52 61 6
a 61 52 6
a 52 53 5
a 53 52 5
a 53 62 10
a 62 53 10
a 53 54 5
a 54 53 5
a 54 63 3
a 63 54 3
a 55 56 10
a 56 55 10
a 56 65 1
a 65 56 1
a 56 57 8
a 57 56 8
a 57 66 6
a 66 57 6
a 57 58 7
a 58 57 7
a 58 67 8
a 67 58 8
a 58 59 9
a 59 58 9
a 59 68 10
a 68 59 10
a 59 60 5
a 60 59 5
a 60 61 7
a 61 60 7
a 61 70 4
a 70 61 4
a 61 62 7
a 62 61 7
a 62 71 9
a 71 62 9
a 62 63 1
a 63 62 1
a 63 72 9
a 72 63 9
a 65 74 6
a 74 65 6
a 65 66 4
a 66 65 4
a 66 75 8
a 75 66 8
a 66 67 1
a 67 66 1
a 67 76 10
a 76 67 10
a 67 68 10
a 68 67 10
a 68 77 4
a 77 68 4
a 70 79 9
a 79 70 9
a 70 71 3
a 71 70 3
a 71 80 3
a 80 71 3
a 71 72 4
a 72 71 4
a 72 81 5
a 81 72 5
a 73 74 2
a 74 73 2
a 74 75 1
a 75 74 1
a 75 76 1
a 76 75 1
a 76 77 4
a 77 76 4
a 77 78 6
a 78 77 6
a 78 79 3
a 79 78 3
a 79 80 8
a 80 79 8
a 80 81 5
a 81 80 5
